8,4	0,0	13,8	15,2	0,0	0,0	0,0	0,0	0,0	19,8
14,5	13,3	0,0	17,9	5,2	0,0	0,0	14,5	0,0	0,0
0,0	0,0	8,0	0,0	7,2	7,5	0,0	0,0	14,9	0,0
10,8	0,0	8,9	0,0	0,0	0,0	10,1	0,0	0,0	0,0
0,0	16,2	0,0	11,7	13,5	0,0	0,0	9,1	0,0	0,0
0,0	10,7	19,2	0,0	5,5	17,8	0,0	0,0	19,0	0,0
0,0	5,8	0,0	12,7	0,0	0,0	5,8	0,0	0,0	15,8
11,5	0,0	6,6	0,0	0,0	0,0	0,0	0,0	0,0	13,5
0,0	14,3	0,0	19,1	12,7	0,0	0,0	15,0	0,0	0,0
0,0	0,0	5,4	0,0	0,0	13,1	7,9	0,0	0,0	17,7
0,0	9,3	0,0	0,0	9,3	0,0	8,6	0,0	10,8	15,4
8,4	0,0	12,3	0,0	8,5	0,0	8,6	5,4	15,0	0,0
0,0	16,3	0,0	0,0	0,0	19,7	0,0	5,1	12,9	16,9
5,2	16,8	10,1	0,0	0,0	8,2	0,0	12,1	5,9	0,0
5,4	0,0	6,2	0,0	18,4	16,0	12,8	18,6	0,0	0,0
0,0	15,6	0,0	15,0	0,0	9,5	0,0	10,4	0,0	0,0
8,3	0,0	14,0	10,5	17,8	0,0	0,0	10,3	0,0	0,0
0,0	0,0	17,0	0,0	0,0	11,2	6,6	0,0	14,2	9,5
16,1	0,0	0,0	7,9	5,3	19,3	5,4	14,6	0,0	10,6
0,0	11,9	0,0	19,1	0,0	0,0	12,0	0,0	19,0	18,4
									
4,4	4,6	4,2	3,5	4,1	4,7	3,6	2,7	3,0	4,7
